
===== New CPLEX run =====
Instance: /home/yorig/tuner/mpils-tests/instances/miplib/easy/lotsize.mps
Config: /scratch/yorig/mpils-results-grid-seconds-5-no-mip-start/easy/16proc/seed-3/4_lotsize_seed-3_20260502_223218/iterated_local_search/run_2_worker_2/ils_config_4762287045461157258.prm
========================

Selected objective sense:  MINIMIZE
Selected objective  name:  R1921
Selected RHS        name:  B
Selected bound      name:  BOUND
Version identifier: 22.1.2.0 | 2024-11-26 | 0edbb82fd
CPXPARAM_Threads                                 8
CPXPARAM_Parallel                                1
CPXPARAM_MIP_Cuts_Cliques                        2
CPXPARAM_MIP_Strategy_VariableSelect             2
CPXPARAM_MIP_Cuts_FlowCovers                     -1
CPXPARAM_MIP_Cuts_Implied                        2
CPXPARAM_MIP_Cuts_GUBCovers                      2
CPXPARAM_MIP_Limits_GomoryCand                   100
CPXPARAM_MIP_Cuts_MIRCut                         -1
CPXPARAM_MIP_Cuts_Disjunctive                    3
CPXPARAM_Emphasis_MIP                            3
CPXPARAM_MIP_Strategy_BBInterval                 10
CPXPARAM_TimeLimit                               5
CPXPARAM_MIP_Limits_CutsFactor                   16
Tried aggregator 1 time.
MIP Presolve eliminated 595 rows and 0 columns.
MIP Presolve added 1190 rows and 0 columns.
MIP Presolve modified 10 coefficients.
Reduced MIP has 2515 rows, 2985 columns, and 7755 nonzeros.
Reduced MIP has 1195 binaries, 0 generals, 0 SOSs, and 0 indicators.
Presolve time = 0.00 sec. (4.53 ticks)
Probing fixed 0 vars, tightened 5487 bounds.
Probing time = 0.01 sec. (18.38 ticks)
Tried aggregator 2 times.
Detecting symmetries...
MIP Presolve modified 1206 coefficients.
Aggregator did 10 substitutions.
Reduced MIP has 2505 rows, 2975 columns, and 7735 nonzeros.
Reduced MIP has 1195 binaries, 0 generals, 0 SOSs, and 0 indicators.
Presolve time = 0.00 sec. (6.66 ticks)
Probing fixed 0 vars, tightened 2401 bounds.
Probing time = 0.00 sec. (6.41 ticks)
Clique table members: 160.
MIP emphasis: best bound.
MIP search method: dynamic search.
Parallel mode: deterministic, using up to 8 threads.
Root relaxation solution time = 0.01 sec. (9.68 ticks)

        Nodes                                         Cuts/
   Node  Left     Objective  IInf  Best Integer    Best Bound    ItCnt     Gap

      0     0   348385.3466   472                 348385.3466      882         
*     0+    0                       1.01740e+07   348385.3466            96.58%
*     0+    0                      7973370.0000   348385.3466            95.63%
      0     0   547073.9872   567  7973370.0000     Cuts: 599     1727   93.14%
      0     0   620386.3326   632  7973370.0000     Cuts: 331     2108   92.22%

GUB cover cuts applied:  0
Clique cuts applied:  1
Cover cuts applied:  9
Implied bound cuts applied:  10
Flow path cuts applied:  100
Multi commodity flow cuts applied:  438
Gomory fractional cuts applied:  101
Disjunctive cuts applied:  110
Cone linearizations applied:  0

Root node processing (before b&c):
  Real time             =    5.01 sec. (7531.29 ticks)
Parallel b&c, 8 threads:
  Real time             =    0.00 sec. (0.00 ticks)
  Sync time (average)   =    0.00 sec.
  Wait time (average)   =    0.00 sec.
                          ------------
Total (root+branch&cut) =    5.01 sec. (7531.29 ticks)
Gap: 91.52%
Upper bound: 7.97337e+06
Lower bound: 676040
End of CPLEX run. Time: 5.01217 seconds

===== New CPLEX run =====
Instance: /home/yorig/tuner/mpils-tests/instances/miplib/easy/lotsize.mps
Config: /scratch/yorig/mpils-results-grid-seconds-5-no-mip-start/easy/16proc/seed-3/4_lotsize_seed-3_20260502_223218/iterated_local_search/run_2_worker_2/ils_config_1807738415648305516.prm
========================

Selected objective sense:  MINIMIZE
Selected objective  name:  R1921
Selected RHS        name:  B
Selected bound      name:  BOUND
Version identifier: 22.1.2.0 | 2024-11-26 | 0edbb82fd
CPXPARAM_Threads                                 8
CPXPARAM_Parallel                                1
CPXPARAM_MIP_Cuts_Cliques                        2
CPXPARAM_MIP_Strategy_VariableSelect             2
CPXPARAM_MIP_Cuts_FlowCovers                     -1
CPXPARAM_MIP_Cuts_GUBCovers                      2
CPXPARAM_MIP_Limits_GomoryCand                   100
CPXPARAM_MIP_Cuts_MIRCut                         -1
CPXPARAM_MIP_Cuts_Disjunctive                    3
CPXPARAM_Emphasis_MIP                            3
CPXPARAM_MIP_Strategy_BBInterval                 10
CPXPARAM_TimeLimit                               5
CPXPARAM_MIP_Limits_CutsFactor                   16
Tried aggregator 1 time.
MIP Presolve eliminated 595 rows and 0 columns.
MIP Presolve added 1190 rows and 0 columns.
MIP Presolve modified 10 coefficients.
Reduced MIP has 2515 rows, 2985 columns, and 7755 nonzeros.
Reduced MIP has 1195 binaries, 0 generals, 0 SOSs, and 0 indicators.
Presolve time = 0.00 sec. (4.53 ticks)
Probing fixed 0 vars, tightened 5487 bounds.
Probing time = 0.01 sec. (18.38 ticks)
Tried aggregator 2 times.
Detecting symmetries...
MIP Presolve modified 1206 coefficients.
Aggregator did 10 substitutions.
Reduced MIP has 2505 rows, 2975 columns, and 7735 nonzeros.
Reduced MIP has 1195 binaries, 0 generals, 0 SOSs, and 0 indicators.
Presolve time = 0.00 sec. (6.66 ticks)
Probing fixed 0 vars, tightened 2401 bounds.
Probing time = 0.00 sec. (6.41 ticks)
Clique table members: 160.
MIP emphasis: best bound.
MIP search method: dynamic search.
Parallel mode: deterministic, using up to 8 threads.
Root relaxation solution time = 0.01 sec. (9.68 ticks)

        Nodes                                         Cuts/
   Node  Left     Objective  IInf  Best Integer    Best Bound    ItCnt     Gap

      0     0   348385.3466   472                 348385.3466      882         
*     0+    0                       1.01740e+07   348385.3466            96.58%
*     0+    0                      7973370.0000   348385.3466            95.63%
      0     0   547073.9872   567  7973370.0000     Cuts: 599     1727   93.14%
      0     0   620386.3326   632  7973370.0000     Cuts: 331     2108   92.22%

GUB cover cuts applied:  0
Clique cuts applied:  1
Cover cuts applied:  9
Implied bound cuts applied:  10
Flow path cuts applied:  100
Multi commodity flow cuts applied:  438
Gomory fractional cuts applied:  101
Disjunctive cuts applied:  110
Cone linearizations applied:  0

Root node processing (before b&c):
  Real time             =    5.01 sec. (7471.41 ticks)
Parallel b&c, 8 threads:
  Real time             =    0.00 sec. (0.00 ticks)
  Sync time (average)   =    0.00 sec.
  Wait time (average)   =    0.00 sec.
                          ------------
Total (root+branch&cut) =    5.01 sec. (7471.41 ticks)
Gap: 91.53%
Upper bound: 7.97337e+06
Lower bound: 675627
End of CPLEX run. Time: 5.0114 seconds

===== New CPLEX run =====
Instance: /home/yorig/tuner/mpils-tests/instances/miplib/easy/lotsize.mps
Config: /scratch/yorig/mpils-results-grid-seconds-5-no-mip-start/easy/16proc/seed-3/4_lotsize_seed-3_20260502_223218/iterated_local_search/run_2_worker_2/ils_config_17199395041788414854.prm
========================

Selected objective sense:  MINIMIZE
Selected objective  name:  R1921
Selected RHS        name:  B
Selected bound      name:  BOUND
Version identifier: 22.1.2.0 | 2024-11-26 | 0edbb82fd
CPXPARAM_Threads                                 8
CPXPARAM_Parallel                                1
CPXPARAM_MIP_Cuts_Cliques                        2
CPXPARAM_MIP_Strategy_VariableSelect             2
CPXPARAM_MIP_Cuts_FlowCovers                     -1
CPXPARAM_MIP_Cuts_Implied                        2
CPXPARAM_MIP_Cuts_GUBCovers                      2
CPXPARAM_MIP_Limits_GomoryCand                   100
CPXPARAM_MIP_Cuts_PathCut                        2
CPXPARAM_MIP_Cuts_MIRCut                         -1
CPXPARAM_MIP_Cuts_Disjunctive                    3
CPXPARAM_Emphasis_MIP                            3
CPXPARAM_MIP_Strategy_BBInterval                 10
CPXPARAM_TimeLimit                               5
CPXPARAM_MIP_Limits_CutsFactor                   16
Tried aggregator 1 time.
MIP Presolve eliminated 595 rows and 0 columns.
MIP Presolve added 1190 rows and 0 columns.
MIP Presolve modified 10 coefficients.
Reduced MIP has 2515 rows, 2985 columns, and 7755 nonzeros.
Reduced MIP has 1195 binaries, 0 generals, 0 SOSs, and 0 indicators.
Presolve time = 0.00 sec. (4.53 ticks)
Probing fixed 0 vars, tightened 5487 bounds.
Probing time = 0.01 sec. (18.38 ticks)
Tried aggregator 2 times.
Detecting symmetries...
MIP Presolve modified 1206 coefficients.
Aggregator did 10 substitutions.
Reduced MIP has 2505 rows, 2975 columns, and 7735 nonzeros.
Reduced MIP has 1195 binaries, 0 generals, 0 SOSs, and 0 indicators.
Presolve time = 0.00 sec. (6.66 ticks)
Probing fixed 0 vars, tightened 2401 bounds.
Probing time = 0.00 sec. (6.41 ticks)
Clique table members: 160.
MIP emphasis: best bound.
MIP search method: dynamic search.
Parallel mode: deterministic, using up to 8 threads.
Root relaxation solution time = 0.01 sec. (9.68 ticks)

        Nodes                                         Cuts/
   Node  Left     Objective  IInf  Best Integer    Best Bound    ItCnt     Gap

      0     0   348385.3466   472                 348385.3466      882         
*     0+    0                       1.01740e+07   348385.3466            96.58%
*     0+    0                      7973370.0000   348385.3466            95.63%
      0     0   547073.9872   567  7973370.0000     Cuts: 599     1727   93.14%
      0     0   620386.3326   632  7973370.0000     Cuts: 331     2108   92.22%

GUB cover cuts applied:  0
Clique cuts applied:  1
Cover cuts applied:  9
Implied bound cuts applied:  10
Flow path cuts applied:  100
Multi commodity flow cuts applied:  438
Gomory fractional cuts applied:  101
Disjunctive cuts applied:  110
Cone linearizations applied:  0

Root node processing (before b&c):
  Real time             =    5.01 sec. (7485.27 ticks)
Parallel b&c, 8 threads:
  Real time             =    0.00 sec. (0.00 ticks)
  Sync time (average)   =    0.00 sec.
  Wait time (average)   =    0.00 sec.
                          ------------
Total (root+branch&cut) =    5.01 sec. (7485.27 ticks)
Gap: 91.53%
Upper bound: 7.97337e+06
Lower bound: 675627
End of CPLEX run. Time: 5.0117 seconds

===== New CPLEX run =====
Instance: /home/yorig/tuner/mpils-tests/instances/miplib/easy/lotsize.mps
Config: /scratch/yorig/mpils-results-grid-seconds-5-no-mip-start/easy/16proc/seed-3/4_lotsize_seed-3_20260502_223218/iterated_local_search/run_2_worker_2/ils_config_3690461832319850054.prm
========================

Selected objective sense:  MINIMIZE
Selected objective  name:  R1921
Selected RHS        name:  B
Selected bound      name:  BOUND
Version identifier: 22.1.2.0 | 2024-11-26 | 0edbb82fd
CPXPARAM_Threads                                 8
CPXPARAM_Parallel                                1
CPXPARAM_MIP_Cuts_Cliques                        2
CPXPARAM_MIP_Strategy_VariableSelect             2
CPXPARAM_MIP_Cuts_FlowCovers                     -1
CPXPARAM_MIP_Cuts_Implied                        2
CPXPARAM_MIP_Cuts_GUBCovers                      2
CPXPARAM_MIP_Limits_GomoryCand                   100
CPXPARAM_MIP_Cuts_MIRCut                         -1
CPXPARAM_MIP_Cuts_Disjunctive                    3
CPXPARAM_Emphasis_MIP                            3
CPXPARAM_MIP_Strategy_BBInterval                 10
CPXPARAM_TimeLimit                               5
CPXPARAM_MIP_Limits_CutsFactor                   4
Tried aggregator 1 time.
MIP Presolve eliminated 595 rows and 0 columns.
MIP Presolve added 1190 rows and 0 columns.
MIP Presolve modified 10 coefficients.
Reduced MIP has 2515 rows, 2985 columns, and 7755 nonzeros.
Reduced MIP has 1195 binaries, 0 generals, 0 SOSs, and 0 indicators.
Presolve time = 0.00 sec. (4.53 ticks)
Probing fixed 0 vars, tightened 5487 bounds.
Probing time = 0.01 sec. (18.38 ticks)
Tried aggregator 2 times.
Detecting symmetries...
MIP Presolve modified 1206 coefficients.
Aggregator did 10 substitutions.
Reduced MIP has 2505 rows, 2975 columns, and 7735 nonzeros.
Reduced MIP has 1195 binaries, 0 generals, 0 SOSs, and 0 indicators.
Presolve time = 0.00 sec. (6.66 ticks)
Probing fixed 0 vars, tightened 2401 bounds.
Probing time = 0.00 sec. (6.41 ticks)
Clique table members: 160.
MIP emphasis: best bound.
MIP search method: dynamic search.
Parallel mode: deterministic, using up to 8 threads.
Root relaxation solution time = 0.01 sec. (9.68 ticks)

        Nodes                                         Cuts/
   Node  Left     Objective  IInf  Best Integer    Best Bound    ItCnt     Gap

      0     0   348385.3466   472                 348385.3466      882         
*     0+    0                       1.01740e+07   348385.3466            96.58%
*     0+    0                      7973370.0000   348385.3466            95.63%
      0     0   547073.9872   567  7973370.0000     Cuts: 599     1727   93.14%
      0     0   620386.3326   632  7973370.0000     Cuts: 331     2108   92.22%

GUB cover cuts applied:  0
Clique cuts applied:  1
Cover cuts applied:  9
Implied bound cuts applied:  10
Flow path cuts applied:  100
Multi commodity flow cuts applied:  438
Gomory fractional cuts applied:  101
Disjunctive cuts applied:  110
Cone linearizations applied:  0

Root node processing (before b&c):
  Real time             =    5.01 sec. (7466.66 ticks)
Parallel b&c, 8 threads:
  Real time             =    0.00 sec. (0.00 ticks)
  Sync time (average)   =    0.00 sec.
  Wait time (average)   =    0.00 sec.
                          ------------
Total (root+branch&cut) =    5.01 sec. (7466.66 ticks)
Gap: 91.53%
Upper bound: 7.97337e+06
Lower bound: 675627
End of CPLEX run. Time: 5.01211 seconds

===== New CPLEX run =====
Instance: /home/yorig/tuner/mpils-tests/instances/miplib/easy/lotsize.mps
Config: /scratch/yorig/mpils-results-grid-seconds-5-no-mip-start/easy/16proc/seed-3/4_lotsize_seed-3_20260502_223218/iterated_local_search/run_2_worker_2/ils_config_10090857380909368706.prm
========================

Selected objective sense:  MINIMIZE
Selected objective  name:  R1921
Selected RHS        name:  B
Selected bound      name:  BOUND
Version identifier: 22.1.2.0 | 2024-11-26 | 0edbb82fd
CPXPARAM_Threads                                 8
CPXPARAM_Parallel                                1
CPXPARAM_MIP_Cuts_Cliques                        2
CPXPARAM_MIP_Strategy_VariableSelect             2
CPXPARAM_MIP_Cuts_FlowCovers                     -1
CPXPARAM_MIP_Cuts_Implied                        2
CPXPARAM_MIP_Limits_GomoryCand                   100
CPXPARAM_MIP_Cuts_MIRCut                         -1
CPXPARAM_MIP_Cuts_Disjunctive                    3
CPXPARAM_Emphasis_MIP                            3
CPXPARAM_MIP_Strategy_BBInterval                 10
CPXPARAM_TimeLimit                               5
CPXPARAM_MIP_Limits_CutsFactor                   16
Tried aggregator 1 time.
MIP Presolve eliminated 595 rows and 0 columns.
MIP Presolve added 1190 rows and 0 columns.
MIP Presolve modified 10 coefficients.
Reduced MIP has 2515 rows, 2985 columns, and 7755 nonzeros.
Reduced MIP has 1195 binaries, 0 generals, 0 SOSs, and 0 indicators.
Presolve time = 0.00 sec. (4.53 ticks)
Probing fixed 0 vars, tightened 5487 bounds.
Probing time = 0.01 sec. (18.38 ticks)
Tried aggregator 2 times.
Detecting symmetries...
MIP Presolve modified 1206 coefficients.
Aggregator did 10 substitutions.
Reduced MIP has 2505 rows, 2975 columns, and 7735 nonzeros.
Reduced MIP has 1195 binaries, 0 generals, 0 SOSs, and 0 indicators.
Presolve time = 0.00 sec. (6.66 ticks)
Probing fixed 0 vars, tightened 2401 bounds.
Probing time = 0.00 sec. (6.41 ticks)
Clique table members: 160.
MIP emphasis: best bound.
MIP search method: dynamic search.
Parallel mode: deterministic, using up to 8 threads.
Root relaxation solution time = 0.01 sec. (9.68 ticks)

        Nodes                                         Cuts/
   Node  Left     Objective  IInf  Best Integer    Best Bound    ItCnt     Gap

      0     0   348385.3466   472                 348385.3466      882         
*     0+    0                       1.01740e+07   348385.3466            96.58%
*     0+    0                      7973370.0000   348385.3466            95.63%
      0     0   547073.9872   567  7973370.0000     Cuts: 599     1727   93.14%
      0     0   620386.3326   632  7973370.0000     Cuts: 331     2108   92.22%

Clique cuts applied:  1
Cover cuts applied:  9
Implied bound cuts applied:  10
Flow path cuts applied:  100
Multi commodity flow cuts applied:  438
Gomory fractional cuts applied:  101
Disjunctive cuts applied:  110
Cone linearizations applied:  0

Root node processing (before b&c):
  Real time             =    5.01 sec. (7556.38 ticks)
Parallel b&c, 8 threads:
  Real time             =    0.00 sec. (0.00 ticks)
  Sync time (average)   =    0.00 sec.
  Wait time (average)   =    0.00 sec.
                          ------------
Total (root+branch&cut) =    5.01 sec. (7556.38 ticks)
Gap: 91.52%
Upper bound: 7.97337e+06
Lower bound: 676040
End of CPLEX run. Time: 5.01361 seconds

===== New CPLEX run =====
Instance: /home/yorig/tuner/mpils-tests/instances/miplib/easy/lotsize.mps
Config: /scratch/yorig/mpils-results-grid-seconds-5-no-mip-start/easy/16proc/seed-3/4_lotsize_seed-3_20260502_223218/iterated_local_search/run_2_worker_2/ils_config_7707664872852984022.prm
========================

Selected objective sense:  MINIMIZE
Selected objective  name:  R1921
Selected RHS        name:  B
Selected bound      name:  BOUND
Version identifier: 22.1.2.0 | 2024-11-26 | 0edbb82fd
CPXPARAM_Threads                                 8
CPXPARAM_Parallel                                1
CPXPARAM_MIP_Cuts_Cliques                        2
CPXPARAM_MIP_Strategy_VariableSelect             2
CPXPARAM_MIP_Cuts_FlowCovers                     -1
CPXPARAM_MIP_Cuts_Implied                        1
CPXPARAM_MIP_Cuts_GUBCovers                      2
CPXPARAM_MIP_Limits_GomoryCand                   100
CPXPARAM_MIP_Cuts_MIRCut                         -1
CPXPARAM_MIP_Cuts_Disjunctive                    3
CPXPARAM_Emphasis_MIP                            3
CPXPARAM_MIP_Strategy_BBInterval                 10
CPXPARAM_TimeLimit                               5
CPXPARAM_MIP_Limits_CutsFactor                   16
Tried aggregator 1 time.
MIP Presolve eliminated 595 rows and 0 columns.
MIP Presolve added 1190 rows and 0 columns.
MIP Presolve modified 10 coefficients.
Reduced MIP has 2515 rows, 2985 columns, and 7755 nonzeros.
Reduced MIP has 1195 binaries, 0 generals, 0 SOSs, and 0 indicators.
Presolve time = 0.00 sec. (4.53 ticks)
Probing fixed 0 vars, tightened 5487 bounds.
Probing time = 0.01 sec. (18.38 ticks)
Tried aggregator 2 times.
Detecting symmetries...
MIP Presolve modified 1206 coefficients.
Aggregator did 10 substitutions.
Reduced MIP has 2505 rows, 2975 columns, and 7735 nonzeros.
Reduced MIP has 1195 binaries, 0 generals, 0 SOSs, and 0 indicators.
Presolve time = 0.00 sec. (6.66 ticks)
Probing fixed 0 vars, tightened 2401 bounds.
Probing time = 0.00 sec. (6.41 ticks)
Clique table members: 160.
MIP emphasis: best bound.
MIP search method: dynamic search.
Parallel mode: deterministic, using up to 8 threads.
Root relaxation solution time = 0.01 sec. (9.68 ticks)

        Nodes                                         Cuts/
   Node  Left     Objective  IInf  Best Integer    Best Bound    ItCnt     Gap

      0     0   348385.3466   472                 348385.3466      882         
*     0+    0                       1.01740e+07   348385.3466            96.58%
*     0+    0                      7973370.0000   348385.3466            95.63%
      0     0   547073.9872   567  7973370.0000     Cuts: 599     1727   93.14%
      0     0   620386.3326   632  7973370.0000     Cuts: 331     2108   92.22%

GUB cover cuts applied:  0
Clique cuts applied:  1
Cover cuts applied:  9
Implied bound cuts applied:  10
Flow path cuts applied:  100
Multi commodity flow cuts applied:  438
Gomory fractional cuts applied:  101
Disjunctive cuts applied:  110
Cone linearizations applied:  0

Root node processing (before b&c):
  Real time             =    5.01 sec. (7483.05 ticks)
Parallel b&c, 8 threads:
  Real time             =    0.00 sec. (0.00 ticks)
  Sync time (average)   =    0.00 sec.
  Wait time (average)   =    0.00 sec.
                          ------------
Total (root+branch&cut) =    5.01 sec. (7483.05 ticks)
Gap: 91.53%
Upper bound: 7.97337e+06
Lower bound: 675627
End of CPLEX run. Time: 5.01286 seconds

===== New CPLEX run =====
Instance: /home/yorig/tuner/mpils-tests/instances/miplib/easy/lotsize.mps
Config: /scratch/yorig/mpils-results-grid-seconds-5-no-mip-start/easy/16proc/seed-3/4_lotsize_seed-3_20260502_223218/iterated_local_search/run_2_worker_2/ils_config_3374403090662743800.prm
========================

Selected objective sense:  MINIMIZE
Selected objective  name:  R1921
Selected RHS        name:  B
Selected bound      name:  BOUND
Version identifier: 22.1.2.0 | 2024-11-26 | 0edbb82fd
CPXPARAM_Threads                                 8
CPXPARAM_Parallel                                1
CPXPARAM_MIP_Cuts_Cliques                        2
CPXPARAM_MIP_Strategy_VariableSelect             2
CPXPARAM_MIP_Cuts_FlowCovers                     -1
CPXPARAM_MIP_Cuts_Implied                        -1
CPXPARAM_MIP_Cuts_GUBCovers                      2
CPXPARAM_MIP_Limits_GomoryCand                   100
CPXPARAM_MIP_Cuts_MIRCut                         -1
CPXPARAM_MIP_Cuts_Disjunctive                    3
CPXPARAM_Emphasis_MIP                            3
CPXPARAM_MIP_Strategy_BBInterval                 10
CPXPARAM_TimeLimit                               5
CPXPARAM_MIP_Limits_CutsFactor                   16
Tried aggregator 1 time.
MIP Presolve eliminated 595 rows and 0 columns.
MIP Presolve added 1190 rows and 0 columns.
MIP Presolve modified 10 coefficients.
Reduced MIP has 2515 rows, 2985 columns, and 7755 nonzeros.
Reduced MIP has 1195 binaries, 0 generals, 0 SOSs, and 0 indicators.
Presolve time = 0.00 sec. (4.53 ticks)
Probing fixed 0 vars, tightened 5487 bounds.
Probing time = 0.01 sec. (18.38 ticks)
Tried aggregator 2 times.
Detecting symmetries...
MIP Presolve modified 1206 coefficients.
Aggregator did 10 substitutions.
Reduced MIP has 2505 rows, 2975 columns, and 7735 nonzeros.
Reduced MIP has 1195 binaries, 0 generals, 0 SOSs, and 0 indicators.
Presolve time = 0.00 sec. (6.66 ticks)
Probing fixed 0 vars, tightened 2401 bounds.
Probing time = 0.00 sec. (6.41 ticks)
Clique table members: 160.
MIP emphasis: best bound.
MIP search method: dynamic search.
Parallel mode: deterministic, using up to 8 threads.
Root relaxation solution time = 0.01 sec. (9.68 ticks)

        Nodes                                         Cuts/
   Node  Left     Objective  IInf  Best Integer    Best Bound    ItCnt     Gap

      0     0   348385.3466   472                 348385.3466      882         
*     0+    0                       1.01740e+07   348385.3466            96.58%
*     0+    0                      7973370.0000   348385.3466            95.63%
      0     0   543945.7947   572  7973370.0000     Cuts: 594     1716   93.18%
      0     0   618826.4190   635  7973370.0000     Cuts: 326     2079   92.24%

GUB cover cuts applied:  0
Clique cuts applied:  2
Cover cuts applied:  9
Flow path cuts applied:  98
Multi commodity flow cuts applied:  435
Gomory fractional cuts applied:  102
Disjunctive cuts applied:  112
Cone linearizations applied:  0

Root node processing (before b&c):
  Real time             =    5.01 sec. (7392.79 ticks)
Parallel b&c, 8 threads:
  Real time             =    0.00 sec. (0.00 ticks)
  Sync time (average)   =    0.00 sec.
  Wait time (average)   =    0.00 sec.
                          ------------
Total (root+branch&cut) =    5.01 sec. (7392.79 ticks)
Gap: 91.95%
Upper bound: 7.97337e+06
Lower bound: 641474
End of CPLEX run. Time: 5.01348 seconds

===== New CPLEX run =====
Instance: /home/yorig/tuner/mpils-tests/instances/miplib/easy/lotsize.mps
Config: /scratch/yorig/mpils-results-grid-seconds-5-no-mip-start/easy/16proc/seed-3/4_lotsize_seed-3_20260502_223218/iterated_local_search/run_2_worker_2/ils_config_2190948104623080276.prm
========================

Selected objective sense:  MINIMIZE
Selected objective  name:  R1921
Selected RHS        name:  B
Selected bound      name:  BOUND
Version identifier: 22.1.2.0 | 2024-11-26 | 0edbb82fd
CPXPARAM_Threads                                 8
CPXPARAM_Parallel                                1
CPXPARAM_MIP_Cuts_Cliques                        2
CPXPARAM_MIP_Strategy_VariableSelect             2
CPXPARAM_MIP_Cuts_FlowCovers                     -1
CPXPARAM_MIP_Cuts_Implied                        2
CPXPARAM_MIP_Cuts_GUBCovers                      2
CPXPARAM_MIP_Limits_GomoryCand                   100
CPXPARAM_MIP_Cuts_MIRCut                         -1
CPXPARAM_MIP_Cuts_Disjunctive                    3
CPXPARAM_Emphasis_MIP                            3
CPXPARAM_MIP_Strategy_BBInterval                 10
CPXPARAM_TimeLimit                               5
CPXPARAM_MIP_Limits_CutsFactor                   1
Tried aggregator 1 time.
MIP Presolve eliminated 595 rows and 0 columns.
MIP Presolve added 1190 rows and 0 columns.
MIP Presolve modified 10 coefficients.
Reduced MIP has 2515 rows, 2985 columns, and 7755 nonzeros.
Reduced MIP has 1195 binaries, 0 generals, 0 SOSs, and 0 indicators.
Presolve time = 0.00 sec. (4.53 ticks)
Probing fixed 0 vars, tightened 5487 bounds.
Probing time = 0.01 sec. (18.38 ticks)
Tried aggregator 2 times.
Detecting symmetries...
MIP Presolve modified 1206 coefficients.
Aggregator did 10 substitutions.
Reduced MIP has 2505 rows, 2975 columns, and 7735 nonzeros.
Reduced MIP has 1195 binaries, 0 generals, 0 SOSs, and 0 indicators.
Presolve time = 0.00 sec. (6.66 ticks)
Probing fixed 0 vars, tightened 2401 bounds.
Probing time = 0.00 sec. (6.41 ticks)
Clique table members: 160.
MIP emphasis: best bound.
MIP search method: dynamic search.
Parallel mode: deterministic, using up to 8 threads.
Root relaxation solution time = 0.01 sec. (9.68 ticks)

        Nodes                                         Cuts/
   Node  Left     Objective  IInf  Best Integer    Best Bound    ItCnt     Gap

      0     0   348385.3466   472                 348385.3466      882         
*     0+    0                       1.40443e+07   348385.3466            97.52%
*     0+    0                       1.01740e+07   348385.3466            96.58%
*     0+    0                      7973370.0000   348385.3466            95.63%
Detecting symmetries...
      0     2   348385.3466   473  7973370.0000   348385.3466      882   95.63%
Elapsed time = 0.44 sec. (836.61 ticks, tree = 0.02 MB, solutions = 3)
     15    14   373540.8759   479  7973370.0000   360504.0519      943   95.48%
    246   133   391696.8716   470  7973370.0000   377726.4333     1471   95.26%
*   800+  457                      6808807.0000   391981.4239            94.24%
*   800+  529                      6611217.0000   391981.4239            94.07%
*   800+  457                      6517857.0000   391981.4239            93.99%
*   800+  529                      6446331.0000   391981.4239            93.92%
*   800+  457                      6352971.0000   391981.4239            93.83%
*   800+  529                      6342899.0000   391981.4239            93.82%
    800   531   400603.8598   472  6342899.0000   391981.4239     2983   93.82%
   1545  1168   403419.4313   477  6342899.0000   397191.0800     5098   93.74%

Performing restart 1

Repeating presolve.
Tried aggregator 1 time.
MIP Presolve modified 901 coefficients.
Reduced MIP has 2505 rows, 2975 columns, and 7735 nonzeros.
Reduced MIP has 1195 binaries, 0 generals, 0 SOSs, and 0 indicators.
Presolve time = 0.00 sec. (3.79 ticks)
Tried aggregator 1 time.
MIP Presolve modified 1052 coefficients.
Reduced MIP has 2505 rows, 2975 columns, and 7735 nonzeros.
Reduced MIP has 1195 binaries, 0 generals, 0 SOSs, and 0 indicators.
Presolve time = 0.00 sec. (5.12 ticks)
Represolve time = 0.01 sec. (18.36 ticks)
*  1932+    0                      4086946.0000   399489.1624            90.23%
*  1932+    0                      3979494.0000   399489.1624            89.96%
   1932     0  -1.00000e+75     0  3979494.0000   399489.1624     8478   89.96%
   1933     3   348385.3466   473  3979494.0000   399489.1624     8480   89.96%
*  1934+    1                      3968634.0000   399489.1624            89.93%
*  1936+    2                      3197432.0000   399489.1624            87.51%
*  1944+    6                      3196938.0000   399489.1624            87.50%
*  1946+    5                      3037074.0000   399489.1624            86.85%
*  1950+    7                      3037074.0000   399489.1624            86.85%
   1957    17   369891.7857   474  3037074.0000   399489.1624     8549   86.85%
   2170   132   383598.8335   474  3037074.0000   399489.1624     9069   86.85%
   2869   741   398605.1527   478  3037074.0000   399489.1624    11920   86.85%
   3761  1594   401589.3530   472  3037074.0000   399489.1624    15280   86.85%
   8865  6341   416400.9086   468  3037074.0000   409285.7752    34341   86.52%
Elapsed time = 1.97 sec. (4043.46 ticks, tree = 7.61 MB, solutions = 28)
  14469 11732   416458.5423   470  3037074.0000   414273.7709    58675   86.36%
* 17581+15208                      3012735.0000   415847.9814            86.20%
* 17723+15408                      2866742.0000   415981.4357            85.49%
* 18031+15760                      2542045.0000   416204.9870            83.63%
* 18271+15965                      2486800.0000   416324.5801            83.26%
  20046 17386   420095.1067   475  2486800.0000   417297.3277    83672   83.22%
  25854 23408   421886.0056   479  2486800.0000   418872.4131   107128   83.16%
  31600 28075   423438.2434   474  2486800.0000   420153.7193   125151   83.10%
* 33709+30763                      2484856.0000   420686.3079            83.07%
* 33731+30662                      2470988.0000   420686.3079            82.97%
* 33764+31061                      2359982.0000   420686.3079            82.17%
* 33817+30575                      2323871.0000   420686.3079            81.90%
* 34328+31876                      2311024.0000   420930.7487            81.79%
* 34332+31876                      2253588.0000   420930.7487            81.32%
* 34482+31489                      1808260.0000   420969.2755            76.72%
* 34491+31529                      1806371.0000   420969.2755            76.70%
* 34813+31346                      1682778.0000   420969.2755            74.98%
* 34974+31401                      1612821.0000   420969.2755            73.90%
  35445 32953   429698.3011   472  1612821.0000   420969.2755   144272   73.90%
* 35497+31346                      1610910.0000   420969.2755            73.87%
* 35728+31401                      1581012.0000   420969.2755            73.37%
* 35769+31346                      1554609.0000   420969.2755            72.92%
* 36255+31346                      1550358.0000   420969.2755            72.85%
* 36296+31401                      1543958.0000   420969.2755            72.73%

GUB cover cuts applied:  0
Clique cuts applied:  0
Cover cuts applied:  1
Implied bound cuts applied:  0
Disjunctive cuts applied:  0
Cone linearizations applied:  0

Root node processing (before b&c):
  Real time             =    0.44 sec. (837.66 ticks)
Parallel b&c, 8 threads:
  Real time             =    4.57 sec. (8523.31 ticks)
  Sync time (average)   =    0.48 sec.
  Wait time (average)   =    0.00 sec.
                          ------------
Total (root+branch&cut) =    5.00 sec. (9360.97 ticks)
Gap: 72.73%
Upper bound: 1.54396e+06
Lower bound: 420969
End of CPLEX run. Time: 5.006 seconds

===== New CPLEX run =====
Instance: /home/yorig/tuner/mpils-tests/instances/miplib/easy/lotsize.mps
Config: /scratch/yorig/mpils-results-grid-seconds-5-no-mip-start/easy/16proc/seed-3/4_lotsize_seed-3_20260502_223218/iterated_local_search/run_2_worker_2/ils_config_4364874064915509852.prm
========================

Selected objective sense:  MINIMIZE
Selected objective  name:  R1921
Selected RHS        name:  B
Selected bound      name:  BOUND
Version identifier: 22.1.2.0 | 2024-11-26 | 0edbb82fd
CPXPARAM_Threads                                 8
CPXPARAM_Parallel                                1
CPXPARAM_MIP_Cuts_Cliques                        3
CPXPARAM_MIP_Strategy_VariableSelect             2
CPXPARAM_MIP_Cuts_FlowCovers                     -1
CPXPARAM_MIP_Cuts_Implied                        2
CPXPARAM_MIP_Cuts_GUBCovers                      2
CPXPARAM_MIP_Limits_GomoryCand                   100
CPXPARAM_MIP_Cuts_MIRCut                         -1
CPXPARAM_MIP_Cuts_Disjunctive                    3
CPXPARAM_Emphasis_MIP                            3
CPXPARAM_MIP_Strategy_BBInterval                 10
CPXPARAM_TimeLimit                               5
CPXPARAM_MIP_Limits_CutsFactor                   1
Tried aggregator 1 time.
MIP Presolve eliminated 595 rows and 0 columns.
MIP Presolve added 1190 rows and 0 columns.
MIP Presolve modified 10 coefficients.
Reduced MIP has 2515 rows, 2985 columns, and 7755 nonzeros.
Reduced MIP has 1195 binaries, 0 generals, 0 SOSs, and 0 indicators.
Presolve time = 0.00 sec. (4.53 ticks)
Probing fixed 0 vars, tightened 5487 bounds.
Probing time = 0.01 sec. (18.38 ticks)
Tried aggregator 2 times.
Detecting symmetries...
MIP Presolve modified 1206 coefficients.
Aggregator did 10 substitutions.
Reduced MIP has 2505 rows, 2975 columns, and 7735 nonzeros.
Reduced MIP has 1195 binaries, 0 generals, 0 SOSs, and 0 indicators.
Presolve time = 0.00 sec. (6.66 ticks)
Probing fixed 0 vars, tightened 2401 bounds.
Probing time = 0.00 sec. (6.41 ticks)
Clique table members: 160.
MIP emphasis: best bound.
MIP search method: dynamic search.
Parallel mode: deterministic, using up to 8 threads.
Root relaxation solution time = 0.01 sec. (9.68 ticks)

        Nodes                                         Cuts/
   Node  Left     Objective  IInf  Best Integer    Best Bound    ItCnt     Gap

      0     0   348385.3466   472                 348385.3466      882         
*     0+    0                       1.40443e+07   348385.3466            97.52%
*     0+    0                       1.01740e+07   348385.3466            96.58%
*     0+    0                      7973370.0000   348385.3466            95.63%
Detecting symmetries...
      0     2   348385.3466   473  7973370.0000   348385.3466      882   95.63%
Elapsed time = 0.44 sec. (836.61 ticks, tree = 0.02 MB, solutions = 3)
     15    14   373540.8759   479  7973370.0000   360504.0519      943   95.48%
    246   133   391696.8716   470  7973370.0000   377726.4333     1471   95.26%
*   800+  457                      6808807.0000   391981.4239            94.24%
*   800+  529                      6611217.0000   391981.4239            94.07%
*   800+  457                      6517857.0000   391981.4239            93.99%
*   800+  529                      6446331.0000   391981.4239            93.92%
*   800+  457                      6352971.0000   391981.4239            93.83%
*   800+  529                      6342899.0000   391981.4239            93.82%
    800   531   400603.8598   472  6342899.0000   391981.4239     2983   93.82%
   1545  1168   403419.4313   477  6342899.0000   397191.0800     5098   93.74%

Performing restart 1

Repeating presolve.
Tried aggregator 1 time.
MIP Presolve modified 901 coefficients.
Reduced MIP has 2505 rows, 2975 columns, and 7735 nonzeros.
Reduced MIP has 1195 binaries, 0 generals, 0 SOSs, and 0 indicators.
Presolve time = 0.00 sec. (3.79 ticks)
Tried aggregator 1 time.
MIP Presolve modified 1052 coefficients.
Reduced MIP has 2505 rows, 2975 columns, and 7735 nonzeros.
Reduced MIP has 1195 binaries, 0 generals, 0 SOSs, and 0 indicators.
Presolve time = 0.00 sec. (5.12 ticks)
Represolve time = 0.01 sec. (18.36 ticks)
*  1932+    0                      4086946.0000   399489.1624            90.23%
*  1932+    0                      3979494.0000   399489.1624            89.96%
   1932     0  -1.00000e+75     0  3979494.0000   399489.1624     8478   89.96%
   1933     3   348385.3466   473  3979494.0000   399489.1624     8480   89.96%
*  1934+    1                      3968634.0000   399489.1624            89.93%
*  1936+    2                      3197432.0000   399489.1624            87.51%
*  1944+    6                      3196938.0000   399489.1624            87.50%
*  1946+    5                      3037074.0000   399489.1624            86.85%
*  1950+    7                      3037074.0000   399489.1624            86.85%
   1957    17   369891.7857   474  3037074.0000   399489.1624     8549   86.85%
   2170   132   383598.8335   474  3037074.0000   399489.1624     9069   86.85%
   2869   741   398605.1527   478  3037074.0000   399489.1624    11920   86.85%
   3761  1594   401589.3530   472  3037074.0000   399489.1624    15280   86.85%
   8865  6341   416400.9086   468  3037074.0000   409285.7752    34341   86.52%
Elapsed time = 1.99 sec. (4043.46 ticks, tree = 7.61 MB, solutions = 28)
  14469 11732   416458.5423   470  3037074.0000   414273.7709    58675   86.36%
* 17581+15208                      3012735.0000   415847.9814            86.20%
* 17723+15408                      2866742.0000   415981.4357            85.49%
* 18031+15760                      2542045.0000   416204.9870            83.63%
* 18271+15965                      2486800.0000   416324.5801            83.26%
  20046 17386   420095.1067   475  2486800.0000   417297.3277    83672   83.22%
  25854 23408   421886.0056   479  2486800.0000   418872.4131   107128   83.16%
  31600 28075   423438.2434   474  2486800.0000   420153.7193   125151   83.10%
* 33709+30763                      2484856.0000   420686.3079            83.07%
* 33731+30662                      2470988.0000   420686.3079            82.97%
* 33764+31061                      2359982.0000   420686.3079            82.17%
* 33817+30575                      2323871.0000   420686.3079            81.90%
* 34328+31876                      2311024.0000   420930.7487            81.79%
* 34332+31876                      2253588.0000   420930.7487            81.32%
* 34482+31489                      1808260.0000   420969.2755            76.72%
* 34491+31529                      1806371.0000   420969.2755            76.70%
* 34813+31346                      1682778.0000   420969.2755            74.98%
* 34974+31401                      1612821.0000   420969.2755            73.90%
  35445 32953   429698.3011   472  1612821.0000   420969.2755   144272   73.90%
* 35497+31346                      1610910.0000   420969.2755            73.87%
* 35728+31401                      1581012.0000   420969.2755            73.37%
* 35769+31346                      1554609.0000   420969.2755            72.92%
* 36255+31346                      1550358.0000   420969.2755            72.85%

GUB cover cuts applied:  0
Clique cuts applied:  0
Cover cuts applied:  1
Implied bound cuts applied:  0
Disjunctive cuts applied:  0
Cone linearizations applied:  0

Root node processing (before b&c):
  Real time             =    0.44 sec. (837.62 ticks)
Parallel b&c, 8 threads:
  Real time             =    4.56 sec. (8512.98 ticks)
  Sync time (average)   =    0.48 sec.
  Wait time (average)   =    0.00 sec.
                          ------------
Total (root+branch&cut) =    5.00 sec. (9350.60 ticks)
Gap: 72.85%
Upper bound: 1.55036e+06
Lower bound: 420969
End of CPLEX run. Time: 5.00605 seconds
